(declare-const a Real)
(declare-const b Real)
(declare-const c Real)
(assert (= (* a b c) 1))
(assert (> a 0))
(assert (> b 0))
(assert (> c 0))
(assert (not (<= (+ (* -112277680 (pow b 4)) (* -85932208 (pow a 4)) (* -226492416 (pow a (pow 3 -1)) (pow b (/ 11 3))) (* -113246208 (pow a (/ 10 3)) (pow b (/ 2 3))) (* 406068544 a (pow b 3)) (* b (pow (+ (* 4994784 b) (* 126885184 (pow a 3))) -1) (pow (+ (* 126885184 (pow a 3)) (* 4994784 a b)) 2))) 0)))
(check-sat)
(get-model)
(exit)